# Objective value = 71
WA1n 0
WA1p 0
WA2n 0
WA2p 1
WB1n 0
WB1p 0
WB2n 0
WB2p 1
WC1n 1
WC1p 0
WD1n 0
WD1p 1
WE1n 0
WE1p 1
WF1n 0
WF1p 1
WG1n 0
WG1p 1
WH1n 0
WH1p 1
WI1n 0
WI1p 1
WJ1n 7
WJ1p 0
WJ2n 1
WJ2p 0
WK1n 7
WK1p 0
WK2n 1
WK2p 0
WL1n 7
WL1p 0
WL2n 1
WL2p 0
WM1n 0
WM1p 7
WM2n 0
WM2p 1
WN1n 0
WN1p 7
WN2n 0
WN2p 1
WT1n 0
WT1p 15
5 7
a 0
b 1
c 0
d 1
e 0
f 1
g 1
h 1
i 1
j 1
k 1
l 0
m 0
n 0
o 0
p 0
q 0
r 1
s 1
t 1
u 1
v 1
